Minimize
 obj: 0
Subject to

\true constraints
   63 X1
 +    80 X2
 +    85 X3
 +    70 X4
 +    84 X5
 +    95 X6
 +    97 X7
 +    63 X8
 +    63 X9
 +    87 X10
 +    62 X11
 +    96 X12
 +    94 X13
 +    65 X14
 +    99 X15
< 601.500000

\multiple objectives
   63 X1
 -    91 X2
 -    69 X3
 -    90 X4
 -    79 X5
 -    75 X6
 -    96 X7
 -    78 X8
 -    85 X9
 -    91 X10
 -    73 X11
 -    81 X12
 -    87 X13
 -    70 X14
 -    70 X15
< 1
   85 X1
 -    71 X2
 -    67 X3
 -    80 X4
 -    88 X5
 -    75 X6
 -    99 X7
 -    91 X8
 -    80 X9
 -    86 X10
 -    98 X11
 -    62 X12
 -    82 X13
 -    67 X14
 -    87 X15
< 2
   69 X1
 -    63 X2
 -    70 X3
 -    93 X4
 -    84 X5
 -    70 X6
 -    93 X7
 -    69 X8
 -    80 X9
 -    71 X10
 -    84 X11
 -    67 X12
 -    65 X13
 -    63 X14
 -    97 X15
< 3
   74 X1
 -    66 X2
 -    95 X3
 -    64 X4
 -    90 X5
 -    69 X6
 -    96 X7
 -    78 X8
 -    81 X9
 -    74 X10
 -    87 X11
 -    77 X12
 -    82 X13
 -    94 X14
 -    76 X15
< 4
   78 X1
 -    65 X2
 -    89 X3
 -    74 X4
 -    81 X5
 -    88 X6
 -    97 X7
 -    60 X8
 -    74 X9
 -    74 X10
 -    98 X11
 -    67 X12
 -    71 X13
 -    68 X14
 -    92 X15
< 5
   82 X1
 -    92 X2
 -    71 X3
 -    90 X4
 -    65 X5
 -    66 X6
 -    65 X7
 -    81 X8
 -    61 X9
 -    93 X10
 -    82 X11
 -    96 X12
 -    97 X13
 -    84 X14
 -    94 X15
< 6
   68 X1
 -    61 X2
 -    65 X3
 -    67 X4
 -    63 X5
 -    70 X6
 -    87 X7
 -    72 X8
 -    74 X9
 -    69 X10
 -    87 X11
 -    93 X12
 -    77 X13
 -    95 X14
 -    80 X15
< 7
   83 X1
 -    98 X2
 -    68 X3
 -    96 X4
 -    99 X5
 -    66 X6
 -    86 X7
 -    96 X8
 -    97 X9
 -    91 X10
 -    64 X11
 -    65 X12
 -    91 X13
 -    60 X14
 -    92 X15
< 8
   68 X1
 -    85 X2
 -    83 X3
 -    67 X4
 -    78 X5
 -    69 X6
 -    87 X7
 -    71 X8
 -    70 X9
 -    94 X10
 -    66 X11
 -    90 X12
 -    89 X13
 -    74 X14
 -    77 X15
< 9
   62 X1
 -    97 X2
 -    69 X3
 -    66 X4
 -    61 X5
 -    75 X6
 -    71 X7
 -    82 X8
 -    70 X9
 -    65 X10
 -    86 X11
 -    80 X12
 -    72 X13
 -    70 X14
 -    80 X15
< 10
BINARY
X1
X2
X3
X4
X5
X6
X7
X8
X9
X10
X11
X12
X13
X14
X15
END
